data;
set WEIGHTS := x0 x1 x2 x3 x4 x5 x6 x7 x8 x9 x10 x11 x12 x13 x14 x15 x16 x17 x18 x19 x20 x21 x22 x23 x24 x25;
param:  cost :=
  x0  312
  x1  979
  x2  892
  x3  699
  x4  618
  x5  621
  x6  525
  x7  446
  x8  928
  x9  701
  x10  211
  x11  825
  x12  93
  x13  982
  x14  44
  x15  844
  x16  242
  x17  385
  x18  561
  x19  512
  x20  833
  x21  355
  x22  66
  x23  208
  x24  158
  x25  43;
param cap := 6500;